198 21175
1 2 7 6 3 4 5 8 9 10 11 12 13 41 40 15 14 37 36 47 51 76 101 103 104 154 155 156 157 158 159 160 161 162 149 145 146 147 148 153 152 150 151 163 164 165 166 172 137 129 130 125 169 124 120 119 118 117 116 113 114 112 107 106 111 110 109 108 182 183 181 177 178 180 184 185 187 186 193 192 191 190 168 167 79 64 78 77 81 90 89 97 98 88 83 82 74 70 67 73 84 87 99 100 86 85 71 69 58 57 42 43 56 59 60 72 68 55 44 45 38 31 32 29 28 30 33 34 39 46 52 53 54 61 66 75 62 65 96 95 94 93 102 91 80 92 105 115 122 121 123 139 138 142 140 143 144 141 135 136 133 134 132 131 126 127 170 128 171 176 175 173 174 198 197 196 195 194 179 188 189 63 49 48 50 35 27 26 25 21 24 22 23 20 19 18 17 16 
